140 141 151 150 149 152 148 147 142 143 144 145 146 153 157 158 134 133 132 131 113 161 160 159 156 155 154 165 164 166 167 163 162 168 169 171 170 172 175 174 173 108 109 111 112 114 110 107 542 541 105 104 103 543 544 547 546 545 548 549 560 561 562 563 564 565 566 567 475 476 477 478 479 480 481 482 483 485 484 536 537 539 538 540 176 177 180 181 179 178 187 188 186 182 183 185 184 194 195 196 197 198 199 200 201 202 204 203 208 207 206 205 209 210 211 212 213 214 215 217 216 246 247 245 244 243 242 241 248 249 250 251 252 254 253 255 256 257 260 261 259 258 262 263 264 266 265 299 300 301 302 508 507 506 307 303 304 306 305 318 317 321 320 319 298 297 296 295 294 293 270 269 268 267 271 272 273 274 275 292 291 290 289 288 276 277 278 279 282 281 280 287 286 285 284 283 334 335 336 337 338 339 333 332 331 330 340 341 344 343 342 366 329 328 327 326 325 324 323 322 373 372 371 396 395 394 393 392 391 388 389 390 381 380 379 378 377 376 375 374 315 314 316 313 312 311 310 309 308 505 504 503 502 517 516 515 514 513 512 511 510 509 237 240 239 238 236 235 234 233 232 223 224 222 221 220 218 219 193 192 191 190 226 225 189 227 228 229 230 231 533 532 531 530 489 488 534 535 487 486 490 529 528 527 526 491 492 493 524 525 523 522 521 520 518 519 497 498 499 452 453 500 501 451 450 441 440 449 448 447 446 442 439 443 444 445 431 382 386 387 385 383 384 409 408 407 406 405 404 403 402 401 400 399 397 398 370 369 368 367 365 345 346 364 363 362 361 360 359 358 348 347 349 350 351 352 414 415 416 413 353 354 355 357 356 412 411 410 418 417 419 420 421 422 423 424 425 426 427 428 429 430 432 433 434 435 436 437 438 454 455 456 457 458 459 460 461 462 463 464 496 465 466 467 571 468 469 470 471 495 494 472 473 474 570 569 568 20 19 18 17 8 572 573 0 1 2 3 4 5 6 7 9 10 11 16 15 14 13 12 21 26 27 29 28 25 24 23 22 31 30 32 33 34 35 36 37 38 40 41 39 42 43 44 45 46 47 48 49 54 53 55 56 58 59 60 61 63 62 79 80 81 57 82 83 52 50 51 84 86 85 91 555 554 553 552 556 557 558 559 550 551 101 102 100 99 98 96 95 97 94 93 92 90 87 89 88 78 77 76 64 75 74 73 72 65 66 67 68 69 70 71 124 125 126 117 123 122 121 120 119 118 106 115 116 127 128 130 129 138 139 137 135 136